5 5
4 3 1 3 2 8 5 16 1 3 5 2 4 14 5 7 5 3 11 4 18 5 11 1 6 2 10
8 3 5 13 2 17 4 13 3 2 17 4 9 3 3 1 4 8 2 1 14 4 16 4 2 10 1 20 5 3 3 19 4 1 7 2 18 4 7 5 4 3 5 15 4 16 1 12 4 1 19 2 18 3 18 5 18
6 4 1 5 4 12 3 7 2 7 1 5 15 1 2 14 5 3 2 1 7 5 18 2 3 4 6 1 5 10 2 3 4 5 20
6 3 3 20 1 18 5 10 3 4 10 2 13 3 4 2 5 11 4 8 4 3 5 2 20 4 4 5 9 5 5 9 1 18 4 17 2 16 3 18 2 5 17 1 18
4 4 1 9 5 14 2 3 3 16 1 5 19 5 5 17 1 4 4 17 3 14 2 4 1 3 13